(set-option :produce-models true)
(set-logic QF_UF)
(declare-fun p2() Bool)
(declare-fun p19() Bool)
(declare-fun p46() Bool)
(declare-fun p45() Bool)
(declare-fun p24() Bool)
(declare-fun p13() Bool)
(declare-fun p22() Bool)
(declare-fun p61() Bool)
(declare-fun p58() Bool)
(declare-fun p38() Bool)
(declare-fun p71() Bool)
(declare-fun p10() Bool)
(declare-fun p17() Bool)
(declare-fun p47() Bool)
(declare-fun p63() Bool)
(declare-fun p72() Bool)
(declare-fun p6() Bool)
(declare-fun p59() Bool)
(declare-fun p51() Bool)
(declare-fun p73() Bool)
(declare-fun p78() Bool)
(declare-fun p40() Bool)
(declare-fun p57() Bool)
(declare-fun p7() Bool)
(declare-fun p30() Bool)
(declare-fun p48() Bool)
(declare-fun p53() Bool)
(declare-fun p76() Bool)
(declare-fun p8() Bool)
(declare-fun p77() Bool)
(declare-fun p9() Bool)
(declare-fun p18() Bool)
(declare-fun p31() Bool)
(declare-fun p0() Bool)
(declare-fun p49() Bool)
(declare-fun p60() Bool)
(declare-fun p55() Bool)
(declare-fun p68() Bool)
(declare-fun p74() Bool)
(declare-fun p69() Bool)
(declare-fun p1() Bool)
(declare-fun p39() Bool)
(declare-fun p66() Bool)
(declare-fun p64() Bool)
(declare-fun p32() Bool)
(declare-fun p3() Bool)
(declare-fun p67() Bool)
(declare-fun p65() Bool)
(declare-fun p5() Bool)
(declare-fun p70() Bool)
(declare-fun p52() Bool)
(declare-fun p34() Bool)
(declare-fun p35() Bool)
(declare-fun p27() Bool)
(declare-fun p37() Bool)
(declare-fun p41() Bool)
(declare-fun p25() Bool)
(declare-fun p33() Bool)
(declare-fun p11() Bool)
(declare-fun p36() Bool)
(declare-fun p54() Bool)
(declare-fun p23() Bool)
(declare-fun p15() Bool)
(declare-fun p62() Bool)
(declare-fun p50() Bool)
(declare-fun p28() Bool)
(declare-fun p44() Bool)
(declare-fun p14() Bool)
(declare-fun p56() Bool)
(declare-fun p20() Bool)
(declare-fun p75() Bool)
(declare-fun p29() Bool)
(declare-fun p21() Bool)
(declare-fun p43() Bool)
(declare-fun p12() Bool)
(declare-fun p42() Bool)
(declare-fun p26() Bool)
(declare-fun p16() Bool)
(declare-fun p79() Bool)
(declare-fun p4() Bool)
(assert
(and (or (not p2) (not p19) p46) (or p46 (not p45) (not p24)) (or (not p13) (not p22) (not p61)) (or (not p58) (not p38) p71) (or p10 (not p17) p47) (or p63 p72 (not p6)) (or p59 (not p59) p51) (or (not p63) (not p73) p78) (or (not p40) (not p57) p7) (or (not p30) p48 (not p53)) (or p76 p8 p77) (or (not p19) (not p72) p9) (or (not p76) (not p18) (not p17)) (or p31 (not p0) (not p49)) (or (not p6) (not p60) (not p46)) (or (not p55) (not p45) p38) (or p68 p71 (not p48)) (or p40 p68 (not p74)) (or (not p69) p1 (not p39)) (or p66 (not p63) p46) (or (not p0) (not p64) p69) (or p32 p22 (not p38)) (or p13 p8 p63) (or p3 (not p78) (not p77)) (or (not p61) (not p39) (not p68)) (or p67 (not p65) (not p46)) (or (not p5) (not p70) (not p52)) (or p72 p34 p10) (or (not p35) p34 (not p27)) (or p37 (not p7) (not p8)) (or (not p41) p24 (not p9)) (or p35 p25 (not p59)) (or (not p5) p33 (not p40)) (or (not p27) p37 (not p11)) (or p19 p70 p69) (or p36 p54 p23) (or p13 (not p27) (not p15)) (or p33 (not p15) p25) (or (not p77) p62 p61) (or p10 p30 p24) (or p25 (not p50) (not p28)) (or (not p44) (not p14) p62) (or (not p62) p55 p22) (or (not p28) p5 p32) (or (not p78) p56 (not p19)) (or p25 (not p78) (not p14)) (or (not p24) p8 p50) (or (not p28) (not p63) p48) (or p78 (not p37) (not p57)) (or (not p23) (not p44) p51) (or (not p19) p45 p77) (or (not p20) (not p75) p0) (or p49 p31 p6) (or (not p71) (not p69) p29) (or p33 (not p78) (not p11)) (or (not p32) (not p65) (not p0)) (or p38 (not p62) p18) (or p11 p18 p44) (or p37 p20 (not p41)) (or (not p35) p19 (not p37)) (or (not p77) p18 (not p32)) (or p35 p40 (not p65)) (or p58 p32 (not p21)) (or (not p47) p40 p72) (or p10 p43 p20) (or p27 (not p20) p58) (or p36 p34 p36) (or p36 (not p44) (not p2)) (or p15 (not p43) p52) (or p74 p12 p3) (or p46 p42 (not p39)) (or (not p17) (not p13) p26) (or p31 (not p34) p38) (or (not p77) p9 p65) (or p72 (not p54) (not p50)) (or (not p17) p24 (not p71)) (or p50 p15 (not p62)) (or p74 (not p9) (not p65)) (or p51 (not p17) (not p65)) (or (not p53) p10 p40) (or (not p1) p22 p9) (or (not p8) (not p42) p7) (or (not p67) p28 (not p32)) (or (not p24) p10 (not p73)) (or (not p24) (not p75) p3) (or p66 (not p72) (not p74)) (or p25 p68 p14) (or (not p40) (not p11) (not p41)) (or p27 (not p19) (not p74)) (or (not p20) (not p15) p36) (or (not p67) p7 (not p54)) (or p40 p70 p15) (or (not p31) (not p10) p53) (or (not p21) p37 p31) (or p9 p12 (not p66)) (or p59 p45 (not p3)) (or p14 (not p30) (not p44)) (or (not p76) p55 (not p2)) (or p30 (not p38) p21) (or p68 p68 (not p33)) (or (not p30) (not p46) (not p28)) (or p39 p12 (not p18)) (or (not p39) (not p61) (not p29)) (or (not p17) (not p66) (not p33)) (or p54 (not p38) p47) (or (not p61) p15 (not p60)) (or p36 p33 p11) (or p62 p44 (not p58)) (or (not p53) (not p67) (not p78)) (or (not p29) (not p62) (not p8)) (or (not p2) (not p35) (not p71)) (or (not p45) p57 p13) (or (not p9) p54 p76) (or (not p39) p56 (not p17)) (or p33 p9 (not p59)) (or p43 (not p74) (not p54)) (or (not p65) (not p64) p25) (or p31 p76 p73) (or p64 p22 (not p51)) (or (not p39) (not p25) (not p69)) (or p72 p65 (not p39)) (or p42 p37 p33) (or p26 (not p12) p54) (or p68 p41 p67) (or (not p54) (not p37) p36) (or (not p24) (not p9) (not p61)) (or p51 (not p39) (not p45)) (or p6 (not p37) (not p73)) (or p28 (not p37) p13) (or p57 p41 (not p30)) (or (not p60) (not p63) p5) (or (not p17) p42 p66) (or (not p52) p30 (not p35)) (or p3 (not p27) p32) (or p23 p65 (not p76)) (or (not p53) (not p40) (not p57)) (or (not p10) (not p74) (not p20)) (or (not p56) (not p75) p75) (or p48 (not p2) (not p61)) (or p62 p13 (not p21)) (or (not p19) p16 (not p32)) (or p79 p73 p46) (or (not p2) (not p73) (not p32)) (or p17 p41 (not p57)) (or (not p1) (not p48) p30) (or (not p0) (not p21) (not p30)) (or (not p42) (not p65) (not p27)) (or (not p25) p53 p65) (or (not p72) (not p56) (not p67)) (or (not p10) p61 (not p54)) (or p67 (not p63) p6) (or (not p7) p6 p64) (or p23 p21 p7) (or p25 (not p47) p16) (or p54 p78 p22) (or p16 p55 p13) (or (not p78) (not p31) p28) (or (not p56) p18 p73) (or (not p35) p12 (not p0)) (or p25 p76 (not p51)) (or (not p49) p29 (not p19)) (or (not p13) (not p6) p27) (or (not p26) p24 (not p0)) (or (not p38) (not p74) (not p48)) (or p78 p9 p36) (or p43 p69 (not p42)) (or (not p24) (not p51) p62) (or (not p9) (not p27) (not p13)) (or p8 p73 p65) (or (not p43) (not p42) (not p57)) (or p23 (not p24) p5) (or p46 p39 p5) (or p72 (not p2) p64) (or (not p75) p54 p15) (or (not p30) (not p49) p25) (or (not p27) (not p53) (not p26)) (or (not p69) p17 (not p11)) (or p48 p10 (not p26)) (or (not p73) p14 p75) (or p45 (not p9) (not p41)) (or (not p24) (not p64) (not p30)) (or p62 p38 p77) (or p45 (not p61) (not p19)) (or p70 (not p79) p37) (or (not p71) (not p74) (not p52)) (or p61 (not p25) (not p45)) (or (not p19) (not p73) (not p33)) (or p27 p44 (not p25)) (or p35 (not p69) p22) (or p32 p26 (not p78)) (or p71 (not p24) (not p25)) (or (not p34) (not p29) p64) (or (not p39) p2 p74) (or (not p38) p27 (not p20)) (or p68 (not p46) (not p18)) (or p65 p64 p7) (or p56 (not p10) (not p11)) (or (not p75) (not p21) (not p13)) (or p55 p47 p65) (or p74 (not p40) (not p43)) (or p12 p16 p34) (or p0 p39 (not p67)) (or (not p37) (not p44) p79) (or (not p10) (not p54) p53) (or (not p32) (not p69) p56) (or (not p46) (not p48) (not p23)) (or p35 (not p21) (not p45)) (or p73 (not p42) (not p10)) (or p2 p5 (not p31)) (or (not p49) (not p37) (not p48)) (or p73 p47 p56) (or (not p21) p33 p71) (or (not p31) (not p37) p53) (or p8 (not p5) p74) (or p75 p74 p38) (or (not p31) p15 (not p34)) (or p33 (not p62) (not p76)) (or p18 p47 p67) (or (not p61) (not p42) (not p5)) (or (not p63) p68 p20) (or p49 p49 p16) (or p76 (not p14) (not p8)) (or (not p25) (not p56) p18) (or p60 (not p53) (not p10)) (or p45 (not p31) p61) (or (not p47) p3 (not p69)) (or p22 p76 p54) (or (not p28) p57 p20) (or (not p30) (not p13) p21) (or (not p78) p8 p3) (or (not p79) (not p49) (not p16)) (or (not p18) p59 (not p61)) (or p49 (not p42) p67) (or p20 p14 (not p36)) (or p54 p12 (not p71)) (or (not p14) (not p54) p49) (or p7 (not p38) (not p71)) (or (not p67) p21 (not p18)) (or p29 (not p2) (not p24)) (or (not p55) p68 p5) (or (not p35) p55 p6) (or p48 p1 p44) (or p8 p62 (not p78)) (or (not p59) (not p72) p57) (or p71 p33 (not p68)) (or p35 p4 p25) (or p25 p52 (not p60)) (or (not p79) p35 (not p1)) (or p51 p74 (not p41)) (or (not p36) (not p46) (not p62)) (or (not p0) (not p76) p11) (or p10 p59 (not p9)) (or p52 p33 p69) (or p25 p9 (not p35)) (or (not p69) (not p6) (not p9)) (or p68 (not p63) p14) (or p29 (not p50) (not p10)) (or p52 (not p26) p12) (or (not p77) p14 p56) (or p20 (not p63) p18) (or (not p28) p79 (not p13)) (or p0 p58 p74) (or (not p61) p53 p23) (or p0 p79 (not p0)) (or p3 p68 p0) (or (not p19) p11 (not p9)) (or p55 p51 p24) (or p6 (not p51) (not p22)) (or p57 p32 p54) (or p55 p47 (not p75)) (or (not p55) (not p52) (not p70)) (or (not p15) p46 p9) (or p20 p20 p27) (or p73 p42 (not p43)) (or (not p65) p71 (not p9)) (or (not p44) p60 (not p42)) (or (not p46) p2 (not p72)) (or (not p12) p32 p6) (or p18 p53 (not p79)) (or (not p0) p54 (not p79)) (or (not p41) (not p29) p40) (or (not p48) p17 (not p11)) (or p25 p28 (not p18)) (or p70 (not p46) p20) (or (not p24) (not p32) p50) (or (not p3) p9 (not p75)) (or p40 (not p79) (not p73)) (or (not p36) p24 (not p72)) (or p19 (not p52) p27) (or (not p65) p44 p51) (or (not p51) (not p33) (not p22)) (or (not p37) p47 p29) (or p78 (not p26) p15) (or (not p46) (not p55) p77) (or (not p45) (not p70) p18) (or (not p13) p49 (not p48)) (or (not p78) (not p26) p20) (or (not p57) p59 (not p77)) (or p2 (not p62) (not p15)) (or p61 (not p25) (not p79)) (or p66 (not p14) p19) (or p53 p59 (not p0)) (or p62 (not p24) p3) (or (not p79) p20 p32) (or p34 p72 (not p60)) (or (not p9) (not p12) p9) (or p16 p6 (not p4)) (or (not p35) (not p24) p70) (or (not p30) p51 p28) (or (not p79) p52 (not p45)) (or p67 p58 (not p77)) (or p32 p69 (not p55)) (or p62 p33 p5) (or p48 (not p52) p22) (or (not p50) p69 (not p52)) (or p15 p55 (not p65)) (or (not p56) (not p73) (not p18)) (or p5 p56 p28) (or (not p62) p31 (not p47)) (or p42 (not p27) p52) (or p27 (not p68) p46) (or p50 p38 (not p54)) (or (not p38) p32 p41) (or (not p58) (not p21) p49) (or p32 (not p60) (not p56)) (or (not p68) (not p43) (not p71)) (or p59 p34 (not p46)) (or (not p7) p60 (not p56)) (or (not p63) (not p71) p61) (or p3 (not p57) p77) (or p37 (not p41) (not p55)) (or p0 (not p5) (not p40)) (or p61 (not p62) (not p26)) (or p26 (not p4) p76) (or p14 (not p72) p59) (or (not p2) (not p19) (not p55)) (or (not p56) p78 p35))
)
(check-sat)
(get-model)
